sat
(:max-memory          18.84
 :memory              17.87
 :num-allocs          528974
 :rlimit-count        21792
 :sls-arith-steps     146
 :sls-ddfw-flips      251.00
 :sls-ddfw-shifts     108.00
 :solve-eqs-elim-vars 44
 :solve-eqs-steps     812
 :time                0.01
 :total-time          0.01)
